1000
18 156 83 187 143 101 174 182 150 173 19 120 32 92 58 130 142 103 148 85 5 117 52 7 163 93 153 151 153 22 39 123 131 122 62 26 176 37 8 78 162 179 198 194 72 57 77 14 112 25 51 64 95 103 72 10 196 177 161 101 199 5 176 130 75 39 156 3 28 116
